; chc-comp19-benchmarks/./lia-lin-arr/chc-lia-lin-arr-0199_000.smt2
(set-logic HORN)

(declare-fun |ULTIMATE.start_L22| ( Int (Array Int Int) (Array Int Int) (Array Int (Array Int Int)) (Array Int (Array Int Int)) Int Int (Array Int Int) (Array Int Int) Int Int Int Int Int Int Int Int Int Int Int Int Int Int Int Int Int Int Int Int Int Int Bool ) Bool)
(declare-fun |ULTIMATE.start_L9-3| ( Int (Array Int Int) (Array Int Int) (Array Int (Array Int Int)) (Array Int (Array Int Int)) Int Int (Array Int Int) (Array Int Int) Int Int Int Int Int Int Int Int Int Int Int Int Int Int Int Int Int Int Int Int Int Int Bool ) Bool)
(declare-fun |ULTIMATE.start_ULTIMATE.startFINAL| ( Int (Array Int Int) (Array Int Int) (Array Int (Array Int Int)) (Array Int (Array Int Int)) Int Int (Array Int Int) (Array Int Int) Int Int Int Int Int Int Int Int Int Int Int Int Int Int Int Int Int Int Int Int Int Int Bool ) Bool)
(declare-fun |ULTIMATE.start_L19-2| ( Int (Array Int Int) (Array Int Int) (Array Int (Array Int Int)) (Array Int (Array Int Int)) Int Int (Array Int Int) (Array Int Int) Int Int Int Int Int Int Int Int Int Int Int Int Int Int Int Int Int Int Int Int Int Int Bool ) Bool)
(declare-fun |ULTIMATE.start_L16-3| ( Int (Array Int Int) (Array Int Int) (Array Int (Array Int Int)) (Array Int (Array Int Int)) Int Int (Array Int Int) (Array Int Int) Int Int Int Int Int Int Int Int Int Int Int Int Int Int Int Int Int Int Int Int Int Int Bool ) Bool)
(declare-fun |ULTIMATE.start_L2| ( Int (Array Int Int) (Array Int Int) (Array Int (Array Int Int)) (Array Int (Array Int Int)) Int Int (Array Int Int) (Array Int Int) Int Int Int Int Int Int Int Int Int Int Int Int Int Int Int Int Int Int Int Int Int Int Bool ) Bool)
(declare-fun |ULTIMATE.start_L2-7| ( Int (Array Int Int) (Array Int Int) (Array Int (Array Int Int)) (Array Int (Array Int Int)) Int Int (Array Int Int) (Array Int Int) Int Int Int Int Int Int Int Int Int Int Int Int Int Int Int Int Int Int Int Int Int Int Bool ) Bool)
(declare-fun |ULTIMATE.start_L9-2| ( Int (Array Int Int) (Array Int Int) (Array Int (Array Int Int)) (Array Int (Array Int Int)) Int Int (Array Int Int) (Array Int Int) Int Int Int Int Int Int Int Int Int Int Int Int Int Int Int Int Int Int Int Int Int Int Bool ) Bool)
(declare-fun |ULTIMATE.start_L2-1| ( Int (Array Int Int) (Array Int Int) (Array Int (Array Int Int)) (Array Int (Array Int Int)) Int Int (Array Int Int) (Array Int Int) Int Int Int Int Int Int Int Int Int Int Int Int Int Int Int Int Int Int Int Int Int Int Bool ) Bool)
(declare-fun |ULTIMATE.start_ULTIMATE.startEXIT| ( Int (Array Int Int) (Array Int Int) (Array Int (Array Int Int)) (Array Int (Array Int Int)) Int Int (Array Int Int) (Array Int Int) Int Int Int Int Int Int Int Int Int Int Int Int Int Int Int Int Int Int Int Int Int Int Bool ) Bool)
(declare-fun |ULTIMATE.start_L19-3| ( Int (Array Int Int) (Array Int Int) (Array Int (Array Int Int)) (Array Int (Array Int Int)) Int Int (Array Int Int) (Array Int Int) Int Int Int Int Int Int Int Int Int Int Int Int Int Int Int Int Int Int Int Int Int Int Bool ) Bool)
(declare-fun |ULTIMATE.start_L-1| ( Int (Array Int Int) (Array Int Int) (Array Int (Array Int Int)) (Array Int (Array Int Int)) Int Int (Array Int Int) (Array Int Int) Int Int Int Int Int Int Int Int Int Int Int Int Int Int Int Int Int Int Int Int Int Int Bool ) Bool)
(declare-fun |ULTIMATE.start_L16-2| ( Int (Array Int Int) (Array Int Int) (Array Int (Array Int Int)) (Array Int (Array Int Int)) Int Int (Array Int Int) (Array Int Int) Int Int Int Int Int Int Int Int Int Int Int Int Int Int Int Int Int Int Int Int Int Int Bool ) Bool)
(declare-fun |ULTIMATE.start_L2-4| ( Int (Array Int Int) (Array Int Int) (Array Int (Array Int Int)) (Array Int (Array Int Int)) Int Int (Array Int Int) (Array Int Int) Int Int Int Int Int Int Int Int Int Int Int Int Int Int Int Int Int Int Int Int Int Int Bool ) Bool)
(declare-fun |ULTIMATE.start_L16-4| ( Int (Array Int Int) (Array Int Int) (Array Int (Array Int Int)) (Array Int (Array Int Int)) Int Int (Array Int Int) (Array Int Int) Int Int Int Int Int Int Int Int Int Int Int Int Int Int Int Int Int Int Int Int Int Int Bool ) Bool)
(declare-fun |ULTIMATE.start_L9-4| ( Int (Array Int Int) (Array Int Int) (Array Int (Array Int Int)) (Array Int (Array Int Int)) Int Int (Array Int Int) (Array Int Int) Int Int Int Int Int Int Int Int Int Int Int Int Int Int Int Int Int Int Int Int Int Int Bool ) Bool)
(declare-fun |ULTIMATE.start_ULTIMATE.startENTRY| ( Int (Array Int Int) (Array Int Int) (Array Int (Array Int Int)) (Array Int (Array Int Int)) Int Int (Array Int Int) (Array Int Int) Int Int Int Int Int Int Int Int Int Int Int Int Int Int Int Int Int Int Int Int Int Int Bool ) Bool)
(declare-fun |ULTIMATE.start_L2-5| ( Int (Array Int Int) (Array Int Int) (Array Int (Array Int Int)) (Array Int (Array Int Int)) Int Int (Array Int Int) (Array Int Int) Int Int Int Int Int Int Int Int Int Int Int Int Int Int Int Int Int Int Int Int Int Int Bool ) Bool)
(declare-fun |ULTIMATE.start_L2-3| ( Int (Array Int Int) (Array Int Int) (Array Int (Array Int Int)) (Array Int (Array Int Int)) Int Int (Array Int Int) (Array Int Int) Int Int Int Int Int Int Int Int Int Int Int Int Int Int Int Int Int Int Int Int Int Int Bool ) Bool)
(declare-fun |ULTIMATE.start_L19-4| ( Int (Array Int Int) (Array Int Int) (Array Int (Array Int Int)) (Array Int (Array Int Int)) Int Int (Array Int Int) (Array Int Int) Int Int Int Int Int Int Int Int Int Int Int Int Int Int Int Int Int Int Int Int Int Int Bool ) Bool)
(declare-fun |ULTIMATE.start_L10| ( Int (Array Int Int) (Array Int Int) (Array Int (Array Int Int)) (Array Int (Array Int Int)) Int Int (Array Int Int) (Array Int Int) Int Int Int Int Int Int Int Int Int Int Int Int Int Int Int Int Int Int Int Int Int Int Bool ) Bool)

(assert
  (forall ( (A Int) (B (Array Int Int)) (C (Array Int Int)) (D (Array Int (Array Int Int))) (E (Array Int (Array Int Int))) (F Int) (G Int) (H (Array Int Int)) (I (Array Int Int)) (J Int) (K Int) (L Int) (M Int) (N Int) (O Int) (P Int) (Q Int) (R Int) (S Int) (T Int) (U Int) (V Int) (W Int) (X Int) (Y Int) (Z Int) (A1 Int) (B1 Int) (C1 Int) (D1 Int) (E1 Int) (F1 Bool) (G1 (Array Int Int)) (H1 Int) (I1 Int) ) 
    (=>
      (and
        (ULTIMATE.start_ULTIMATE.startENTRY
  A
  G1
  C
  D
  E
  H1
  G
  H
  I
  I1
  K
  L
  M
  N
  O
  P
  Q
  R
  S
  T
  U
  V
  W
  X
  Y
  Z
  A1
  B1
  C1
  D1
  E1
  F1)
        (or F1 (and (= J 0) (= F 0) (= B (store G1 0 0))))
      )
      (ULTIMATE.start_L-1
  A
  B
  C
  D
  E
  F
  G
  H
  I
  J
  K
  L
  M
  N
  O
  P
  Q
  R
  S
  T
  U
  V
  W
  X
  Y
  Z
  A1
  B1
  C1
  D1
  E1
  F1)
    )
  )
)
(assert
  (forall ( (A Int) (B (Array Int Int)) (C (Array Int Int)) (D (Array Int (Array Int Int))) (E (Array Int (Array Int Int))) (F Int) (G Int) (H (Array Int Int)) (I (Array Int Int)) (J Int) (K Int) (L Int) (M Int) (N Int) (O Int) (P Int) (Q Int) (R Int) (S Int) (T Int) (U Int) (V Int) (W Int) (X Int) (Y Int) (Z Int) (A1 Int) (B1 Int) (C1 Int) (D1 Int) (E1 Int) (F1 Bool) (G1 (Array Int Int)) (H1 (Array Int Int)) (I1 Int) (J1 Int) (K1 Int) (L1 Int) (M1 Int) (N1 Int) (O1 Int) (P1 Int) (Q1 Int) (R1 Int) (S1 Int) (T1 Int) (U1 Int) (V1 Int) (W1 Int) (X1 Int) (Y1 Int) ) 
    (=>
      (and
        (ULTIMATE.start_L-1
  A
  G1
  C
  D
  E
  F
  G
  H1
  I
  J
  K
  I1
  J1
  N
  K1
  L1
  M1
  R
  N1
  O1
  P1
  Q1
  R1
  S1
  T1
  Z
  U1
  V1
  W1
  X1
  Y1
  F1)
        (let ((a!1 (= 0 (select (store (store G1 M 1) U 1) D1)))
      (a!2 (= H (store (store (store H1 M 400000) U 400000) D1 400000)))
      (a!3 (= (store (store (store G1 M 1) U 1) D1 1) B)))
(let ((a!4 (and (not (<= A M))
                (not (<= A D1))
                (not (<= A U))
                (= L 0)
                (= P 0)
                (= E1 0)
                (= V 0)
                (not (= 0 M))
                (not (= 0 D1))
                (= 0 B1)
                (not (= 0 U))
                (= 0 (select G1 M))
                a!1
                (= (select (store G1 M 1) U) 0)
                a!2
                a!3)))
  (or F1 a!4)))
      )
      (ULTIMATE.start_L9-3
  A
  B
  C
  D
  E
  F
  G
  H
  I
  J
  K
  L
  M
  N
  O
  P
  Q
  R
  S
  T
  U
  V
  W
  X
  Y
  Z
  A1
  B1
  C1
  D1
  E1
  F1)
    )
  )
)
(assert
  (forall ( (A Int) (B (Array Int Int)) (C (Array Int Int)) (D (Array Int (Array Int Int))) (E (Array Int (Array Int Int))) (F Int) (G Int) (H (Array Int Int)) (I (Array Int Int)) (J Int) (K Int) (L Int) (M Int) (N Int) (O Int) (P Int) (Q Int) (R Int) (S Int) (T Int) (U Int) (V Int) (W Int) (X Int) (Y Int) (Z Int) (A1 Int) (B1 Int) (C1 Int) (D1 Int) (E1 Int) (F1 Bool) ) 
    (=>
      (and
        (ULTIMATE.start_L9-3
  A
  B
  C
  D
  E
  F
  G
  H
  I
  J
  K
  L
  M
  N
  O
  P
  Q
  R
  S
  T
  U
  V
  W
  X
  Y
  Z
  A1
  B1
  C1
  D1
  E1
  F1)
        (= F1 true)
      )
      (ULTIMATE.start_L9-4
  A
  B
  C
  D
  E
  F
  G
  H
  I
  J
  K
  L
  M
  N
  O
  P
  Q
  R
  S
  T
  U
  V
  W
  X
  Y
  Z
  A1
  B1
  C1
  D1
  E1
  F1)
    )
  )
)
(assert
  (forall ( (A Int) (B (Array Int Int)) (C (Array Int Int)) (D (Array Int (Array Int Int))) (E (Array Int (Array Int Int))) (F Int) (G Int) (H (Array Int Int)) (I (Array Int Int)) (J Int) (K Int) (L Int) (M Int) (N Int) (O Int) (P Int) (Q Int) (R Int) (S Int) (T Int) (U Int) (V Int) (W Int) (X Int) (Y Int) (Z Int) (A1 Int) (B1 Int) (C1 Int) (D1 Int) (E1 Int) (F1 Bool) ) 
    (=>
      (and
        (ULTIMATE.start_L9-3
  A
  B
  C
  D
  E
  F
  G
  H
  I
  J
  K
  L
  M
  N
  O
  P
  Q
  R
  S
  T
  U
  V
  W
  X
  Y
  Z
  A1
  B1
  C1
  D1
  E1
  F1)
        (or F1 (<= 100000 P))
      )
      (ULTIMATE.start_L9-4
  A
  B
  C
  D
  E
  F
  G
  H
  I
  J
  K
  L
  M
  N
  O
  P
  Q
  R
  S
  T
  U
  V
  W
  X
  Y
  Z
  A1
  B1
  C1
  D1
  E1
  F1)
    )
  )
)
(assert
  (forall ( (A Int) (B (Array Int Int)) (C (Array Int Int)) (D (Array Int (Array Int Int))) (E (Array Int (Array Int Int))) (F Int) (G Int) (H (Array Int Int)) (I (Array Int Int)) (J Int) (K Int) (L Int) (M Int) (N Int) (O Int) (P Int) (Q Int) (R Int) (S Int) (T Int) (U Int) (V Int) (W Int) (X Int) (Y Int) (Z Int) (A1 Int) (B1 Int) (C1 Int) (D1 Int) (E1 Int) (F1 Bool) (G1 Int) (H1 Int) ) 
    (=>
      (and
        (ULTIMATE.start_L9-3
  A
  B
  C
  D
  E
  F
  G
  H
  I
  J
  K
  L
  M
  N
  O
  P
  Q
  R
  S
  T
  U
  V
  W
  G1
  H1
  Z
  A1
  B1
  C1
  D1
  E1
  F1)
        (let ((a!1 (= X (select (select D U) (+ (* 4 P) L))))
      (a!2 (= (select (select D M) (+ (* 4 P) B1)) Y)))
  (or F1 (and (not (<= 100000 P)) a!1 a!2)))
      )
      (ULTIMATE.start_L10
  A
  B
  C
  D
  E
  F
  G
  H
  I
  J
  K
  L
  M
  N
  O
  P
  Q
  R
  S
  T
  U
  V
  W
  X
  Y
  Z
  A1
  B1
  C1
  D1
  E1
  F1)
    )
  )
)
(assert
  (forall ( (A Int) (B (Array Int Int)) (C (Array Int Int)) (D (Array Int (Array Int Int))) (E (Array Int (Array Int Int))) (F Int) (G Int) (H (Array Int Int)) (I (Array Int Int)) (J Int) (K Int) (L Int) (M Int) (N Int) (O Int) (P Int) (Q Int) (R Int) (S Int) (T Int) (U Int) (V Int) (W Int) (X Int) (Y Int) (Z Int) (A1 Int) (B1 Int) (C1 Int) (D1 Int) (E1 Int) (F1 Bool) (G1 Int) ) 
    (=>
      (and
        (ULTIMATE.start_L9-4
  A
  B
  C
  D
  E
  F
  G
  H
  I
  J
  K
  L
  M
  N
  O
  P
  Q
  R
  G1
  T
  U
  V
  W
  X
  Y
  Z
  A1
  B1
  C1
  D1
  E1
  F1)
        (or F1 (= S 0))
      )
      (ULTIMATE.start_L16-3
  A
  B
  C
  D
  E
  F
  G
  H
  I
  J
  K
  L
  M
  N
  O
  P
  Q
  R
  S
  T
  U
  V
  W
  X
  Y
  Z
  A1
  B1
  C1
  D1
  E1
  F1)
    )
  )
)
(assert
  (forall ( (A Int) (B (Array Int Int)) (C (Array Int Int)) (D (Array Int (Array Int Int))) (E (Array Int (Array Int Int))) (F Int) (G Int) (H (Array Int Int)) (I (Array Int Int)) (J Int) (K Int) (L Int) (M Int) (N Int) (O Int) (P Int) (Q Int) (R Int) (S Int) (T Int) (U Int) (V Int) (W Int) (X Int) (Y Int) (Z Int) (A1 Int) (B1 Int) (C1 Int) (D1 Int) (E1 Int) (F1 Bool) (G1 (Array Int (Array Int Int))) (H1 Int) (I1 Int) (J1 Int) ) 
    (=>
      (and
        (ULTIMATE.start_L10
  A
  B
  C
  G1
  E
  F
  G
  H
  I
  J
  K
  L
  M
  N
  O
  P
  Q
  R
  S
  T
  U
  H1
  W
  I1
  J1
  Z
  A1
  B1
  C1
  D1
  E1
  F1)
        (let ((a!1 (store G1 D1 (store (select G1 D1) (+ (* 4 H1) E1) P))))
  (or F1 (and (= V (+ 1 H1)) (= I1 J1) (= D a!1))))
      )
      (ULTIMATE.start_L9-2
  A
  B
  C
  D
  E
  F
  G
  H
  I
  J
  K
  L
  M
  N
  O
  P
  Q
  R
  S
  T
  U
  V
  W
  X
  Y
  Z
  A1
  B1
  C1
  D1
  E1
  F1)
    )
  )
)
(assert
  (forall ( (A Int) (B (Array Int Int)) (C (Array Int Int)) (D (Array Int (Array Int Int))) (E (Array Int (Array Int Int))) (F Int) (G Int) (H (Array Int Int)) (I (Array Int Int)) (J Int) (K Int) (L Int) (M Int) (N Int) (O Int) (P Int) (Q Int) (R Int) (S Int) (T Int) (U Int) (V Int) (W Int) (X Int) (Y Int) (Z Int) (A1 Int) (B1 Int) (C1 Int) (D1 Int) (E1 Int) (F1 Bool) (G1 Int) (H1 Int) ) 
    (=>
      (and
        (ULTIMATE.start_L10
  A
  B
  C
  D
  E
  F
  G
  H
  I
  J
  K
  L
  M
  N
  O
  P
  Q
  R
  S
  T
  U
  V
  W
  G1
  H1
  Z
  A1
  B1
  C1
  D1
  E1
  F1)
        (or F1 (not (= G1 H1)))
      )
      (ULTIMATE.start_L9-2
  A
  B
  C
  D
  E
  F
  G
  H
  I
  J
  K
  L
  M
  N
  O
  P
  Q
  R
  S
  T
  U
  V
  W
  X
  Y
  Z
  A1
  B1
  C1
  D1
  E1
  F1)
    )
  )
)
(assert
  (forall ( (A Int) (B (Array Int Int)) (C (Array Int Int)) (D (Array Int (Array Int Int))) (E (Array Int (Array Int Int))) (F Int) (G Int) (H (Array Int Int)) (I (Array Int Int)) (J Int) (K Int) (L Int) (M Int) (N Int) (O Int) (P Int) (Q Int) (R Int) (S Int) (T Int) (U Int) (V Int) (W Int) (X Int) (Y Int) (Z Int) (A1 Int) (B1 Int) (C1 Int) (D1 Int) (E1 Int) (F1 Bool) ) 
    (=>
      (and
        (ULTIMATE.start_L16-3
  A
  B
  C
  D
  E
  F
  G
  H
  I
  J
  K
  L
  M
  N
  O
  P
  Q
  R
  S
  T
  U
  V
  W
  X
  Y
  Z
  A1
  B1
  C1
  D1
  E1
  F1)
        (= F1 true)
      )
      (ULTIMATE.start_L16-4
  A
  B
  C
  D
  E
  F
  G
  H
  I
  J
  K
  L
  M
  N
  O
  P
  Q
  R
  S
  T
  U
  V
  W
  X
  Y
  Z
  A1
  B1
  C1
  D1
  E1
  F1)
    )
  )
)
(assert
  (forall ( (A Int) (B (Array Int Int)) (C (Array Int Int)) (D (Array Int (Array Int Int))) (E (Array Int (Array Int Int))) (F Int) (G Int) (H (Array Int Int)) (I (Array Int Int)) (J Int) (K Int) (L Int) (M Int) (N Int) (O Int) (P Int) (Q Int) (R Int) (S Int) (T Int) (U Int) (V Int) (W Int) (X Int) (Y Int) (Z Int) (A1 Int) (B1 Int) (C1 Int) (D1 Int) (E1 Int) (F1 Bool) ) 
    (=>
      (and
        (ULTIMATE.start_L16-3
  A
  B
  C
  D
  E
  F
  G
  H
  I
  J
  K
  L
  M
  N
  O
  P
  Q
  R
  S
  T
  U
  V
  W
  X
  Y
  Z
  A1
  B1
  C1
  D1
  E1
  F1)
        (or F1 (<= V S))
      )
      (ULTIMATE.start_L16-4
  A
  B
  C
  D
  E
  F
  G
  H
  I
  J
  K
  L
  M
  N
  O
  P
  Q
  R
  S
  T
  U
  V
  W
  X
  Y
  Z
  A1
  B1
  C1
  D1
  E1
  F1)
    )
  )
)
(assert
  (forall ( (A Int) (B (Array Int Int)) (C (Array Int Int)) (D (Array Int (Array Int Int))) (E (Array Int (Array Int Int))) (F Int) (G Int) (H (Array Int Int)) (I (Array Int Int)) (J Int) (K Int) (L Int) (M Int) (N Int) (O Int) (P Int) (Q Int) (R Int) (S Int) (T Int) (U Int) (V Int) (W Int) (X Int) (Y Int) (Z Int) (A1 Int) (B1 Int) (C1 Int) (D1 Int) (E1 Int) (F1 Bool) (G1 Int) (H1 Int) (I1 Int) ) 
    (=>
      (and
        (ULTIMATE.start_L16-3
  A
  B
  C
  D
  E
  F
  G
  H
  I
  J
  K
  L
  M
  G1
  O
  P
  Q
  R
  S
  T
  U
  V
  W
  X
  Y
  H1
  A1
  B1
  I1
  D1
  E1
  F1)
        (let ((a!1 (= Z (ite (<= (+ V C1) (+ S P)) 1 0)))
      (a!2 (= C1 (select (select D D1) (+ (* 4 S) E1)))))
  (or F1 (and (not (<= V S)) (= N Z) a!1 a!2)))
      )
      (ULTIMATE.start_L2
  A
  B
  C
  D
  E
  F
  G
  H
  I
  J
  K
  L
  M
  N
  O
  P
  Q
  R
  S
  T
  U
  V
  W
  X
  Y
  Z
  A1
  B1
  C1
  D1
  E1
  F1)
    )
  )
)
(assert
  (forall ( (A Int) (B (Array Int Int)) (C (Array Int Int)) (D (Array Int (Array Int Int))) (E (Array Int (Array Int Int))) (F Int) (G Int) (H (Array Int Int)) (I (Array Int Int)) (J Int) (K Int) (L Int) (M Int) (N Int) (O Int) (P Int) (Q Int) (R Int) (S Int) (T Int) (U Int) (V Int) (W Int) (X Int) (Y Int) (Z Int) (A1 Int) (B1 Int) (C1 Int) (D1 Int) (E1 Int) (F1 Bool) (G1 Int) (H1 Int) ) 
    (=>
      (and
        (ULTIMATE.start_L9-2
  A
  B
  C
  D
  E
  F
  G
  H
  I
  J
  K
  L
  M
  N
  O
  G1
  H1
  R
  S
  T
  U
  V
  W
  X
  Y
  Z
  A1
  B1
  C1
  D1
  E1
  F1)
        (or F1 (= G1 (+ (- 1) P)))
      )
      (ULTIMATE.start_L9-3
  A
  B
  C
  D
  E
  F
  G
  H
  I
  J
  K
  L
  M
  N
  O
  P
  Q
  R
  S
  T
  U
  V
  W
  X
  Y
  Z
  A1
  B1
  C1
  D1
  E1
  F1)
    )
  )
)
(assert
  (forall ( (A Int) (B (Array Int Int)) (C (Array Int Int)) (D (Array Int (Array Int Int))) (E (Array Int (Array Int Int))) (F Int) (G Int) (H (Array Int Int)) (I (Array Int Int)) (J Int) (K Int) (L Int) (M Int) (N Int) (O Int) (P Int) (Q Int) (R Int) (S Int) (T Int) (U Int) (V Int) (W Int) (X Int) (Y Int) (Z Int) (A1 Int) (B1 Int) (C1 Int) (D1 Int) (E1 Int) (F1 Bool) (G1 Int) ) 
    (=>
      (and
        (ULTIMATE.start_L16-4
  A
  B
  C
  D
  E
  F
  G
  H
  I
  J
  K
  L
  M
  N
  O
  P
  Q
  R
  G1
  T
  U
  V
  W
  X
  Y
  Z
  A1
  B1
  C1
  D1
  E1
  F1)
        (or F1 (= S 0))
      )
      (ULTIMATE.start_L19-3
  A
  B
  C
  D
  E
  F
  G
  H
  I
  J
  K
  L
  M
  N
  O
  P
  Q
  R
  S
  T
  U
  V
  W
  X
  Y
  Z
  A1
  B1
  C1
  D1
  E1
  F1)
    )
  )
)
(assert
  (forall ( (A Int) (B (Array Int Int)) (C (Array Int Int)) (D (Array Int (Array Int Int))) (E (Array Int (Array Int Int))) (F Int) (G Int) (H (Array Int Int)) (I (Array Int Int)) (J Int) (K Int) (L Int) (M Int) (N Int) (O Int) (P Int) (Q Int) (R Int) (S Int) (T Int) (U Int) (V Int) (W Int) (X Int) (Y Int) (Z Int) (A1 Int) (B1 Int) (C1 Int) (D1 Int) (E1 Int) (F1 Bool) ) 
    (=>
      (and
        (ULTIMATE.start_L2
  A
  B
  C
  D
  E
  F
  G
  H
  I
  J
  K
  L
  M
  N
  O
  P
  Q
  R
  S
  T
  U
  V
  W
  X
  Y
  Z
  A1
  B1
  C1
  D1
  E1
  F1)
        (or F1 (= 0 N))
      )
      (ULTIMATE.start_L2-1
  A
  B
  C
  D
  E
  F
  G
  H
  I
  J
  K
  L
  M
  N
  O
  P
  Q
  R
  S
  T
  U
  V
  W
  X
  Y
  Z
  A1
  B1
  C1
  D1
  E1
  F1)
    )
  )
)
(assert
  (forall ( (A Int) (B (Array Int Int)) (C (Array Int Int)) (D (Array Int (Array Int Int))) (E (Array Int (Array Int Int))) (F Int) (G Int) (H (Array Int Int)) (I (Array Int Int)) (J Int) (K Int) (L Int) (M Int) (N Int) (O Int) (P Int) (Q Int) (R Int) (S Int) (T Int) (U Int) (V Int) (W Int) (X Int) (Y Int) (Z Int) (A1 Int) (B1 Int) (C1 Int) (D1 Int) (E1 Int) (F1 Bool) ) 
    (=>
      (and
        (ULTIMATE.start_L2
  A
  B
  C
  D
  E
  F
  G
  H
  I
  J
  K
  L
  M
  N
  O
  P
  Q
  R
  S
  T
  U
  V
  W
  X
  Y
  Z
  A1
  B1
  C1
  D1
  E1
  F1)
        (or F1 (not (= 0 N)))
      )
      (ULTIMATE.start_L2-3
  A
  B
  C
  D
  E
  F
  G
  H
  I
  J
  K
  L
  M
  N
  O
  P
  Q
  R
  S
  T
  U
  V
  W
  X
  Y
  Z
  A1
  B1
  C1
  D1
  E1
  F1)
    )
  )
)
(assert
  (forall ( (A Int) (B (Array Int Int)) (C (Array Int Int)) (D (Array Int (Array Int Int))) (E (Array Int (Array Int Int))) (F Int) (G Int) (H (Array Int Int)) (I (Array Int Int)) (J Int) (K Int) (L Int) (M Int) (N Int) (O Int) (P Int) (Q Int) (R Int) (S Int) (T Int) (U Int) (V Int) (W Int) (X Int) (Y Int) (Z Int) (A1 Int) (B1 Int) (C1 Int) (D1 Int) (E1 Int) (F1 Bool) ) 
    (=>
      (and
        (ULTIMATE.start_L19-3
  A
  B
  C
  D
  E
  F
  G
  H
  I
  J
  K
  L
  M
  N
  O
  P
  Q
  R
  S
  T
  U
  V
  W
  X
  Y
  Z
  A1
  B1
  C1
  D1
  E1
  F1)
        (= F1 true)
      )
      (ULTIMATE.start_L19-4
  A
  B
  C
  D
  E
  F
  G
  H
  I
  J
  K
  L
  M
  N
  O
  P
  Q
  R
  S
  T
  U
  V
  W
  X
  Y
  Z
  A1
  B1
  C1
  D1
  E1
  F1)
    )
  )
)
(assert
  (forall ( (A Int) (B (Array Int Int)) (C (Array Int Int)) (D (Array Int (Array Int Int))) (E (Array Int (Array Int Int))) (F Int) (G Int) (H (Array Int Int)) (I (Array Int Int)) (J Int) (K Int) (L Int) (M Int) (N Int) (O Int) (P Int) (Q Int) (R Int) (S Int) (T Int) (U Int) (V Int) (W Int) (X Int) (Y Int) (Z Int) (A1 Int) (B1 Int) (C1 Int) (D1 Int) (E1 Int) (F1 Bool) ) 
    (=>
      (and
        (ULTIMATE.start_L19-3
  A
  B
  C
  D
  E
  F
  G
  H
  I
  J
  K
  L
  M
  N
  O
  P
  Q
  R
  S
  T
  U
  V
  W
  X
  Y
  Z
  A1
  B1
  C1
  D1
  E1
  F1)
        (or F1 (<= V S))
      )
      (ULTIMATE.start_L19-4
  A
  B
  C
  D
  E
  F
  G
  H
  I
  J
  K
  L
  M
  N
  O
  P
  Q
  R
  S
  T
  U
  V
  W
  X
  Y
  Z
  A1
  B1
  C1
  D1
  E1
  F1)
    )
  )
)
(assert
  (forall ( (A Int) (B (Array Int Int)) (C (Array Int Int)) (D (Array Int (Array Int Int))) (E (Array Int (Array Int Int))) (F Int) (G Int) (H (Array Int Int)) (I (Array Int Int)) (J Int) (K Int) (L Int) (M Int) (N Int) (O Int) (P Int) (Q Int) (R Int) (S Int) (T Int) (U Int) (V Int) (W Int) (X Int) (Y Int) (Z Int) (A1 Int) (B1 Int) (C1 Int) (D1 Int) (E1 Int) (F1 Bool) (G1 Int) (H1 Int) (I1 Int) ) 
    (=>
      (and
        (ULTIMATE.start_L19-3
  A
  B
  C
  D
  E
  F
  G
  H
  I
  J
  K
  L
  M
  G1
  O
  P
  Q
  R
  S
  T
  U
  V
  W
  X
  Y
  H1
  I1
  B1
  C1
  D1
  E1
  F1)
        (let ((a!1 (= A1 (select (select D D1) (+ (* 4 S) E1)))))
(let ((a!2 (and (not (<= V S)) (= N Z) a!1 (= Z (ite (<= S A1) 1 0)))))
  (or F1 a!2)))
      )
      (ULTIMATE.start_L2-4
  A
  B
  C
  D
  E
  F
  G
  H
  I
  J
  K
  L
  M
  N
  O
  P
  Q
  R
  S
  T
  U
  V
  W
  X
  Y
  Z
  A1
  B1
  C1
  D1
  E1
  F1)
    )
  )
)
(assert
  (forall ( (A Int) (B (Array Int Int)) (C (Array Int Int)) (D (Array Int (Array Int Int))) (E (Array Int (Array Int Int))) (F Int) (G Int) (H (Array Int Int)) (I (Array Int Int)) (J Int) (K Int) (L Int) (M Int) (N Int) (O Int) (P Int) (Q Int) (R Int) (S Int) (T Int) (U Int) (V Int) (W Int) (X Int) (Y Int) (Z Int) (A1 Int) (B1 Int) (C1 Int) (D1 Int) (E1 Int) (F1 Bool) (G1 Bool) ) 
    (=>
      (and
        (ULTIMATE.start_L2-1
  A
  B
  C
  D
  E
  F
  G
  H
  I
  J
  K
  L
  M
  N
  O
  P
  Q
  R
  S
  T
  U
  V
  W
  X
  Y
  Z
  A1
  B1
  C1
  D1
  E1
  G1)
        (= F1 true)
      )
      (ULTIMATE.start_ULTIMATE.startEXIT
  A
  B
  C
  D
  E
  F
  G
  H
  I
  J
  K
  L
  M
  N
  O
  P
  Q
  R
  S
  T
  U
  V
  W
  X
  Y
  Z
  A1
  B1
  C1
  D1
  E1
  F1)
    )
  )
)
(assert
  (forall ( (A Int) (B (Array Int Int)) (C (Array Int Int)) (D (Array Int (Array Int Int))) (E (Array Int (Array Int Int))) (F Int) (G Int) (H (Array Int Int)) (I (Array Int Int)) (J Int) (K Int) (L Int) (M Int) (N Int) (O Int) (P Int) (Q Int) (R Int) (S Int) (T Int) (U Int) (V Int) (W Int) (X Int) (Y Int) (Z Int) (A1 Int) (B1 Int) (C1 Int) (D1 Int) (E1 Int) (F1 Bool) ) 
    (=>
      (and
        (ULTIMATE.start_L2-1
  A
  B
  C
  D
  E
  F
  G
  H
  I
  J
  K
  L
  M
  N
  O
  P
  Q
  R
  S
  T
  U
  V
  W
  X
  Y
  Z
  A1
  B1
  C1
  D1
  E1
  F1)
        (= F1 true)
      )
      (ULTIMATE.start_L2-3
  A
  B
  C
  D
  E
  F
  G
  H
  I
  J
  K
  L
  M
  N
  O
  P
  Q
  R
  S
  T
  U
  V
  W
  X
  Y
  Z
  A1
  B1
  C1
  D1
  E1
  F1)
    )
  )
)
(assert
  (forall ( (A Int) (B (Array Int Int)) (C (Array Int Int)) (D (Array Int (Array Int Int))) (E (Array Int (Array Int Int))) (F Int) (G Int) (H (Array Int Int)) (I (Array Int Int)) (J Int) (K Int) (L Int) (M Int) (N Int) (O Int) (P Int) (Q Int) (R Int) (S Int) (T Int) (U Int) (V Int) (W Int) (X Int) (Y Int) (Z Int) (A1 Int) (B1 Int) (C1 Int) (D1 Int) (E1 Int) (F1 Bool) (G1 Int) ) 
    (=>
      (and
        (ULTIMATE.start_L2-3
  A
  B
  C
  D
  E
  F
  G
  H
  I
  J
  K
  L
  M
  N
  O
  P
  Q
  R
  S
  T
  U
  V
  W
  X
  Y
  Z
  A1
  B1
  G1
  D1
  E1
  F1)
        true
      )
      (ULTIMATE.start_L16-2
  A
  B
  C
  D
  E
  F
  G
  H
  I
  J
  K
  L
  M
  N
  O
  P
  Q
  R
  S
  T
  U
  V
  W
  X
  Y
  Z
  A1
  B1
  C1
  D1
  E1
  F1)
    )
  )
)
(assert
  (forall ( (A Int) (B (Array Int Int)) (C (Array Int Int)) (D (Array Int (Array Int Int))) (E (Array Int (Array Int Int))) (F Int) (G Int) (H (Array Int Int)) (I (Array Int Int)) (J Int) (K Int) (L Int) (M Int) (N Int) (O Int) (P Int) (Q Int) (R Int) (S Int) (T Int) (U Int) (V Int) (W Int) (X Int) (Y Int) (Z Int) (A1 Int) (B1 Int) (C1 Int) (D1 Int) (E1 Int) (F1 Bool) (G1 (Array Int Int)) (H1 Int) (I1 Int) (J1 Int) (K1 Int) (L1 Int) (M1 Int) (N1 Int) ) 
    (=>
      (and
        (ULTIMATE.start_L19-4
  A
  G1
  C
  D
  E
  F
  G
  H
  I
  J
  K
  H1
  I1
  N
  O
  P
  Q
  R
  S
  T
  J1
  V
  K1
  X
  Y
  Z
  A1
  L1
  C1
  M1
  N1
  F1)
        (let ((a!1 (= (store (store (store G1 I1 0) J1 0) M1 0) B)))
  (or F1 (and (= W 0) a!1)))
      )
      (ULTIMATE.start_L22
  A
  B
  C
  D
  E
  F
  G
  H
  I
  J
  K
  L
  M
  N
  O
  P
  Q
  R
  S
  T
  U
  V
  W
  X
  Y
  Z
  A1
  B1
  C1
  D1
  E1
  F1)
    )
  )
)
(assert
  (forall ( (A Int) (B (Array Int Int)) (C (Array Int Int)) (D (Array Int (Array Int Int))) (E (Array Int (Array Int Int))) (F Int) (G Int) (H (Array Int Int)) (I (Array Int Int)) (J Int) (K Int) (L Int) (M Int) (N Int) (O Int) (P Int) (Q Int) (R Int) (S Int) (T Int) (U Int) (V Int) (W Int) (X Int) (Y Int) (Z Int) (A1 Int) (B1 Int) (C1 Int) (D1 Int) (E1 Int) (F1 Bool) ) 
    (=>
      (and
        (ULTIMATE.start_L2-4
  A
  B
  C
  D
  E
  F
  G
  H
  I
  J
  K
  L
  M
  N
  O
  P
  Q
  R
  S
  T
  U
  V
  W
  X
  Y
  Z
  A1
  B1
  C1
  D1
  E1
  F1)
        (or F1 (= 0 N))
      )
      (ULTIMATE.start_L2-5
  A
  B
  C
  D
  E
  F
  G
  H
  I
  J
  K
  L
  M
  N
  O
  P
  Q
  R
  S
  T
  U
  V
  W
  X
  Y
  Z
  A1
  B1
  C1
  D1
  E1
  F1)
    )
  )
)
(assert
  (forall ( (A Int) (B (Array Int Int)) (C (Array Int Int)) (D (Array Int (Array Int Int))) (E (Array Int (Array Int Int))) (F Int) (G Int) (H (Array Int Int)) (I (Array Int Int)) (J Int) (K Int) (L Int) (M Int) (N Int) (O Int) (P Int) (Q Int) (R Int) (S Int) (T Int) (U Int) (V Int) (W Int) (X Int) (Y Int) (Z Int) (A1 Int) (B1 Int) (C1 Int) (D1 Int) (E1 Int) (F1 Bool) ) 
    (=>
      (and
        (ULTIMATE.start_L2-4
  A
  B
  C
  D
  E
  F
  G
  H
  I
  J
  K
  L
  M
  N
  O
  P
  Q
  R
  S
  T
  U
  V
  W
  X
  Y
  Z
  A1
  B1
  C1
  D1
  E1
  F1)
        (or F1 (not (= 0 N)))
      )
      (ULTIMATE.start_L2-7
  A
  B
  C
  D
  E
  F
  G
  H
  I
  J
  K
  L
  M
  N
  O
  P
  Q
  R
  S
  T
  U
  V
  W
  X
  Y
  Z
  A1
  B1
  C1
  D1
  E1
  F1)
    )
  )
)
(assert
  (forall ( (A Int) (B (Array Int Int)) (C (Array Int Int)) (D (Array Int (Array Int Int))) (E (Array Int (Array Int Int))) (F Int) (G Int) (H (Array Int Int)) (I (Array Int Int)) (J Int) (K Int) (L Int) (M Int) (N Int) (O Int) (P Int) (Q Int) (R Int) (S Int) (T Int) (U Int) (V Int) (W Int) (X Int) (Y Int) (Z Int) (A1 Int) (B1 Int) (C1 Int) (D1 Int) (E1 Int) (F1 Bool) (G1 Int) (H1 Int) ) 
    (=>
      (and
        (ULTIMATE.start_L16-2
  A
  B
  C
  D
  E
  F
  G
  H
  I
  J
  K
  L
  M
  N
  G1
  P
  Q
  R
  H1
  T
  U
  V
  W
  X
  Y
  Z
  A1
  B1
  C1
  D1
  E1
  F1)
        (or F1 (= S (+ 1 H1)))
      )
      (ULTIMATE.start_L16-3
  A
  B
  C
  D
  E
  F
  G
  H
  I
  J
  K
  L
  M
  N
  O
  P
  Q
  R
  S
  T
  U
  V
  W
  X
  Y
  Z
  A1
  B1
  C1
  D1
  E1
  F1)
    )
  )
)
(assert
  (forall ( (A Int) (B (Array Int Int)) (C (Array Int Int)) (D (Array Int (Array Int Int))) (E (Array Int (Array Int Int))) (F Int) (G Int) (H (Array Int Int)) (I (Array Int Int)) (J Int) (K Int) (L Int) (M Int) (N Int) (O Int) (P Int) (Q Int) (R Int) (S Int) (T Int) (U Int) (V Int) (W Int) (X Int) (Y Int) (Z Int) (A1 Int) (B1 Int) (C1 Int) (D1 Int) (E1 Int) (F1 Bool) (G1 Int) ) 
    (=>
      (and
        (ULTIMATE.start_L22
  A
  B
  C
  D
  E
  F
  G
  H
  I
  J
  K
  L
  M
  N
  O
  P
  Q
  G1
  S
  T
  U
  V
  W
  X
  Y
  Z
  A1
  B1
  C1
  D1
  E1
  F1)
        (or F1 (= R W))
      )
      (ULTIMATE.start_ULTIMATE.startFINAL
  A
  B
  C
  D
  E
  F
  G
  H
  I
  J
  K
  L
  M
  N
  O
  P
  Q
  R
  S
  T
  U
  V
  W
  X
  Y
  Z
  A1
  B1
  C1
  D1
  E1
  F1)
    )
  )
)
(assert
  (forall ( (A Int) (B (Array Int Int)) (C (Array Int Int)) (D (Array Int (Array Int Int))) (E (Array Int (Array Int Int))) (F Int) (G Int) (H (Array Int Int)) (I (Array Int Int)) (J Int) (K Int) (L Int) (M Int) (N Int) (O Int) (P Int) (Q Int) (R Int) (S Int) (T Int) (U Int) (V Int) (W Int) (X Int) (Y Int) (Z Int) (A1 Int) (B1 Int) (C1 Int) (D1 Int) (E1 Int) (F1 Bool) (G1 Bool) ) 
    (=>
      (and
        (ULTIMATE.start_L2-5
  A
  B
  C
  D
  E
  F
  G
  H
  I
  J
  K
  L
  M
  N
  O
  P
  Q
  R
  S
  T
  U
  V
  W
  X
  Y
  Z
  A1
  B1
  C1
  D1
  E1
  G1)
        (= F1 true)
      )
      (ULTIMATE.start_ULTIMATE.startEXIT
  A
  B
  C
  D
  E
  F
  G
  H
  I
  J
  K
  L
  M
  N
  O
  P
  Q
  R
  S
  T
  U
  V
  W
  X
  Y
  Z
  A1
  B1
  C1
  D1
  E1
  F1)
    )
  )
)
(assert
  (forall ( (A Int) (B (Array Int Int)) (C (Array Int Int)) (D (Array Int (Array Int Int))) (E (Array Int (Array Int Int))) (F Int) (G Int) (H (Array Int Int)) (I (Array Int Int)) (J Int) (K Int) (L Int) (M Int) (N Int) (O Int) (P Int) (Q Int) (R Int) (S Int) (T Int) (U Int) (V Int) (W Int) (X Int) (Y Int) (Z Int) (A1 Int) (B1 Int) (C1 Int) (D1 Int) (E1 Int) (F1 Bool) ) 
    (=>
      (and
        (ULTIMATE.start_L2-5
  A
  B
  C
  D
  E
  F
  G
  H
  I
  J
  K
  L
  M
  N
  O
  P
  Q
  R
  S
  T
  U
  V
  W
  X
  Y
  Z
  A1
  B1
  C1
  D1
  E1
  F1)
        (= F1 true)
      )
      (ULTIMATE.start_L2-7
  A
  B
  C
  D
  E
  F
  G
  H
  I
  J
  K
  L
  M
  N
  O
  P
  Q
  R
  S
  T
  U
  V
  W
  X
  Y
  Z
  A1
  B1
  C1
  D1
  E1
  F1)
    )
  )
)
(assert
  (forall ( (A Int) (B (Array Int Int)) (C (Array Int Int)) (D (Array Int (Array Int Int))) (E (Array Int (Array Int Int))) (F Int) (G Int) (H (Array Int Int)) (I (Array Int Int)) (J Int) (K Int) (L Int) (M Int) (N Int) (O Int) (P Int) (Q Int) (R Int) (S Int) (T Int) (U Int) (V Int) (W Int) (X Int) (Y Int) (Z Int) (A1 Int) (B1 Int) (C1 Int) (D1 Int) (E1 Int) (F1 Bool) (G1 Int) ) 
    (=>
      (and
        (ULTIMATE.start_L2-7
  A
  B
  C
  D
  E
  F
  G
  H
  I
  J
  K
  L
  M
  N
  O
  P
  Q
  R
  S
  T
  U
  V
  W
  X
  Y
  Z
  G1
  B1
  C1
  D1
  E1
  F1)
        true
      )
      (ULTIMATE.start_L19-2
  A
  B
  C
  D
  E
  F
  G
  H
  I
  J
  K
  L
  M
  N
  O
  P
  Q
  R
  S
  T
  U
  V
  W
  X
  Y
  Z
  A1
  B1
  C1
  D1
  E1
  F1)
    )
  )
)
(assert
  (forall ( (A Int) (B (Array Int Int)) (C (Array Int Int)) (D (Array Int (Array Int Int))) (E (Array Int (Array Int Int))) (F Int) (G Int) (H (Array Int Int)) (I (Array Int Int)) (J Int) (K Int) (L Int) (M Int) (N Int) (O Int) (P Int) (Q Int) (R Int) (S Int) (T Int) (U Int) (V Int) (W Int) (X Int) (Y Int) (Z Int) (A1 Int) (B1 Int) (C1 Int) (D1 Int) (E1 Int) (F1 Bool) ) 
    (=>
      (and
        (ULTIMATE.start_ULTIMATE.startFINAL
  A
  B
  C
  D
  E
  F
  G
  H
  I
  J
  K
  L
  M
  N
  O
  P
  Q
  R
  S
  T
  U
  V
  W
  X
  Y
  Z
  A1
  B1
  C1
  D1
  E1
  F1)
        true
      )
      (ULTIMATE.start_ULTIMATE.startEXIT
  A
  B
  C
  D
  E
  F
  G
  H
  I
  J
  K
  L
  M
  N
  O
  P
  Q
  R
  S
  T
  U
  V
  W
  X
  Y
  Z
  A1
  B1
  C1
  D1
  E1
  F1)
    )
  )
)
(assert
  (forall ( (A Int) (B (Array Int Int)) (C (Array Int Int)) (D (Array Int (Array Int Int))) (E (Array Int (Array Int Int))) (F Int) (G Int) (H (Array Int Int)) (I (Array Int Int)) (J Int) (K Int) (L Int) (M Int) (N Int) (O Int) (P Int) (Q Int) (R Int) (S Int) (T Int) (U Int) (V Int) (W Int) (X Int) (Y Int) (Z Int) (A1 Int) (B1 Int) (C1 Int) (D1 Int) (E1 Int) (F1 Bool) (G1 Int) (H1 Int) ) 
    (=>
      (and
        (ULTIMATE.start_L19-2
  A
  B
  C
  D
  E
  F
  G
  H
  I
  J
  K
  L
  M
  N
  O
  P
  Q
  R
  G1
  H1
  U
  V
  W
  X
  Y
  Z
  A1
  B1
  C1
  D1
  E1
  F1)
        (or F1 (= S (+ 1 G1)))
      )
      (ULTIMATE.start_L19-3
  A
  B
  C
  D
  E
  F
  G
  H
  I
  J
  K
  L
  M
  N
  O
  P
  Q
  R
  S
  T
  U
  V
  W
  X
  Y
  Z
  A1
  B1
  C1
  D1
  E1
  F1)
    )
  )
)
(assert
  (forall ( (A Int) (B (Array Int Int)) (C (Array Int Int)) (D (Array Int (Array Int Int))) (E (Array Int (Array Int Int))) (F Int) (G Int) (H (Array Int Int)) (I (Array Int Int)) (J Int) (K Int) (L Int) (M Int) (N Int) (O Int) (P Int) (Q Int) (R Int) (S Int) (T Int) (U Int) (V Int) (W Int) (X Int) (Y Int) (Z Int) (A1 Int) (B1 Int) (C1 Int) (D1 Int) (E1 Int) (F1 Bool) ) 
    (=>
      (and
        (and (= I H) (= B C) (= K J) (= F G) (not F1) (= D E))
      )
      (ULTIMATE.start_ULTIMATE.startENTRY
  A
  B
  C
  D
  E
  F
  G
  H
  I
  J
  K
  L
  M
  N
  O
  P
  Q
  R
  S
  T
  U
  V
  W
  X
  Y
  Z
  A1
  B1
  C1
  D1
  E1
  F1)
    )
  )
)
(assert
  (forall ( (A Int) (B (Array Int Int)) (C (Array Int Int)) (D (Array Int (Array Int Int))) (E (Array Int (Array Int Int))) (F Int) (G Int) (H (Array Int Int)) (I (Array Int Int)) (J Int) (K Int) (L Int) (M Int) (N Int) (O Int) (P Int) (Q Int) (R Int) (S Int) (T Int) (U Int) (V Int) (W Int) (X Int) (Y Int) (Z Int) (A1 Int) (B1 Int) (C1 Int) (D1 Int) (E1 Int) (F1 Bool) ) 
    (=>
      (and
        (ULTIMATE.start_ULTIMATE.startEXIT
  A
  B
  C
  D
  E
  F
  G
  H
  I
  J
  K
  L
  M
  N
  O
  P
  Q
  R
  S
  T
  U
  V
  W
  X
  Y
  Z
  A1
  B1
  C1
  D1
  E1
  F1)
        (= F1 true)
      )
      false
    )
  )
)

(check-sat)
(exit)
